c generated by sgen
p cnf 65 140
-2 -3 -4 0
-1 -3 -4 0
-1 -2 -4 0
-1 -2 -3 0
-6 -7 -8 0
-5 -7 -8 0
-5 -6 -8 0
-5 -6 -7 0
-10 -11 -12 0
-9 -11 -12 0
-9 -10 -12 0
-9 -10 -11 0
-14 -15 -16 0
-13 -15 -16 0
-13 -14 -16 0
-13 -14 -15 0
-18 -19 -20 0
-17 -19 -20 0
-17 -18 -20 0
-17 -18 -19 0
-22 -23 -24 0
-21 -23 -24 0
-21 -22 -24 0
-21 -22 -23 0
-26 -27 -28 0
-25 -27 -28 0
-25 -26 -28 0
-25 -26 -27 0
-30 -31 -32 0
-29 -31 -32 0
-29 -30 -32 0
-29 -30 -31 0
-34 -35 -36 0
-33 -35 -36 0
-33 -34 -36 0
-33 -34 -35 0
-38 -39 -40 0
-37 -39 -40 0
-37 -38 -40 0
-37 -38 -39 0
-42 -43 -44 0
-41 -43 -44 0
-41 -42 -44 0
-41 -42 -43 0
-46 -47 -48 0
-45 -47 -48 0
-45 -46 -48 0
-45 -46 -47 0
-50 -51 -52 0
-49 -51 -52 0
-49 -50 -52 0
-49 -50 -51 0
-54 -55 -56 0
-53 -55 -56 0
-53 -54 -56 0
-53 -54 -55 0
-58 -59 -60 0
-57 -59 -60 0
-57 -58 -60 0
-57 -58 -59 0
-61 -62 -63 0
-61 -62 -64 0
-61 -62 -65 0
-61 -63 -64 0
-61 -63 -65 0
-61 -64 -65 0
-62 -63 -64 0
-62 -63 -65 0
-62 -64 -65 0
-63 -64 -65 0
5 3 37 0
52 3 37 0
52 5 37 0
52 5 3 0
29 6 27 0
42 6 27 0
42 29 27 0
42 29 6 0
14 8 18 0
63 8 18 0
63 14 18 0
63 14 8 0
65 51 15 0
59 51 15 0
59 65 15 0
59 65 51 0
32 50 53 0
10 50 53 0
10 32 53 0
10 32 50 0
9 38 60 0
28 38 60 0
28 9 60 0
28 9 38 0
36 12 45 0
7 12 45 0
7 36 45 0
7 36 12 0
56 57 64 0
48 57 64 0
48 56 64 0
48 56 57 0
30 17 39 0
47 17 39 0
47 30 39 0
47 30 17 0
43 61 2 0
11 61 2 0
11 43 2 0
11 43 61 0
46 25 13 0
23 25 13 0
23 46 13 0
23 46 25 0
26 54 20 0
1 54 20 0
1 26 20 0
1 26 54 0
21 44 19 0
49 44 19 0
49 21 19 0
49 21 44 0
41 35 55 0
16 35 55 0
16 41 55 0
16 41 35 0
22 40 62 0
34 40 62 0
34 22 62 0
34 22 40 0
24 33 31 0
24 33 58 0
24 33 4 0
24 31 58 0
24 31 4 0
24 58 4 0
33 31 58 0
33 31 4 0
33 58 4 0
31 58 4 0
